
50
9257

72 684
434 392
372 336
56 532
186 168
496 448
80 760
558 504
62 56
32 304
72 684
56 532
8 76
186 168
8 76
620 560
372 336
248 224
72 684
558 504
64 608
48 456
434 392
496 448
24 228
62 56
372 336
434 392
434 392
8 76
62 56
372 336
372 336
48 456
186 168
434 392
48 456
62 56
372 336
496 448
248 224
620 560
72 684
72 684
32 304
620 560
72 684
16 152
186 168
24 228
